; Copyright (c) 2026 The RIINA Authors. All rights reserved.
; Copyright (c) 2026 The RIINA Authors.
; Auto-generated from 02_FORMAL/coq/domains/mobile_os/SystemApps.v (24 assertions)
; Generated by scripts/generate-full-stack.py
; Module: SystemApps

(set-logic ALL)
(set-option :produce-models true)

; AppCategory (matches Coq: Inductive AppCategory)
(declare-datatypes ((AppCategory 0)) (((Communication) (Productivity) (Media) (Utility) (Security))))

; SystemApp (matches Coq: Record SystemApp)
(declare-datatypes ((SystemApp 0))
  (((mk-system_app (sys_app_id Int) (app_category AppCategory) (is_verified Bool) (has_sandbox Bool) (permissions_minimal Bool) (data_encrypted Bool)))))

; AppState (matches Coq: Record AppState)
(declare-datatypes ((AppState 0))
  (((mk-app_state (state_app_id Int) (state_data list) (state_valid Bool) (state_hash Int)))))

; StateTransition (matches Coq: Record StateTransition)
(declare-datatypes ((StateTransition 0))
  (((mk-state_transition (trans_app_id Int) (from_state AppState) (to_state AppState) (transition_type Int)))))

; SyncOperation (matches Coq: Record SyncOperation)
(declare-datatypes ((SyncOperation 0))
  (((mk-sync_operation (sync_app_id Int) (local_state AppState) (remote_state AppState) (merged_state AppState) (sync_successful Bool)))))

; AppResponse (matches Coq: Record AppResponse)
(declare-datatypes ((AppResponse 0))
  (((mk-app_response (response_app_id Int) (response_time_us Int) (response_correct Bool)))))

; AppPermission (matches Coq: Record AppPermission)
(declare-datatypes ((AppPermission 0))
  (((mk-app_permission (perm_app_id Int) (perm_camera Bool) (perm_microphone Bool) (perm_location Bool) (perm_network Bool) (perm_clipboard Bool) (perm_notification Bool) (perm_granted_explicitly Bool)))))

; AppLifecycle (matches Coq: Record AppLifecycle)
(declare-datatypes ((AppLifecycle 0))
  (((mk-app_lifecycle (lc_app_id Int) (lc_installed Bool) (lc_install_verified Bool) (lc_foreground Bool) (lc_background Bool) (lc_background_limited Bool) (lc_data_on_disk Bool) (lc_version Int)))))

; AppUpdate (matches Coq: Record AppUpdate)
(declare-datatypes ((AppUpdate 0))
  (((mk-app_update (upd_app_id Int) (upd_old_version Int) (upd_new_version Int) (upd_signature_valid Bool) (upd_applied Bool) (upd_rollback_available Bool)))))

; system_app_correct (matches Coq: Definition system_app_correct)
(define-fun system_app_correct ((app SystemApp)) Prop
  true)

; data_secure (matches Coq: Definition data_secure)
(define-fun data_secure ((app SystemApp)) Prop
  true)

; valid_transition (matches Coq: Definition valid_transition)
(define-fun valid_transition ((trans StateTransition)) Prop
  true)

; state_preserved (matches Coq: Definition state_preserved)
(define-fun state_preserved ((trans StateTransition)) Prop
  true)

; sync_lossless (matches Coq: Definition sync_lossless)
(define-fun sync_lossless ((sync SyncOperation)) Prop
  true)

; response_timely (matches Coq: Definition response_timely)
(define-fun response_timely ((resp AppResponse)) Prop
  true)

; app_responds_correctly (matches Coq: Definition app_responds_correctly)
(define-fun app_responds_correctly ((resp AppResponse)) Prop
  true)

; wellformed_system_app (matches Coq: Definition wellformed_system_app)
(define-fun wellformed_system_app ((app SystemApp)) Prop
  true)

; check_app_security (matches Coq: Definition check_app_security)
(define-fun check_app_security ((app SystemApp)) Bool
  (and (is_verified app) (has_sandbox app) (permissions_minimal app) (data_encrypted app)))

; transition_preserves_validity (matches Coq: Definition transition_preserves_validity)
(define-fun transition_preserves_validity ((trans StateTransition)) Bool
  true)

; app_sandbox_holds (matches Coq: Definition app_sandbox_holds)
(define-fun app_sandbox_holds ((app SystemApp) (perm AppPermission)) Prop
  true)

; no_cross_app_access (matches Coq: Definition no_cross_app_access)
(define-fun no_cross_app_access () Prop true)

; app_permission_runtime_check (matches Coq: Definition app_permission_runtime_check)
(define-fun app_permission_runtime_check ((perm AppPermission)) Prop
  true)

; background_app_is_limited (matches Coq: Definition background_app_is_limited)
(define-fun background_app_is_limited ((lc AppLifecycle)) Prop
  true)

; foreground_has_priority (matches Coq: Definition foreground_has_priority)
(define-fun foreground_has_priority ((lc AppLifecycle)) Prop
  true)

; install_is_verified (matches Coq: Definition install_is_verified)
(define-fun install_is_verified ((lc AppLifecycle)) Prop
  true)

; update_is_atomic (matches Coq: Definition update_is_atomic)
(define-fun update_is_atomic ((upd AppUpdate)) Prop
  true)

; uninstall_is_complete (matches Coq: Definition uninstall_is_complete)
(define-fun uninstall_is_complete ((lc AppLifecycle)) Prop
  true)

; system_apps_verified_correct (matches Coq: Theorem system_apps_verified_correct)
(assert (= true true)) ; system_apps_verified_correct [untranslatable]

; system_app_data_encrypted (matches Coq: Theorem system_app_data_encrypted)
(assert (= true true)) ; system_app_data_encrypted [untranslatable]

; state_transition_valid (matches Coq: Theorem state_transition_valid)
(assert (= true true)) ; state_transition_valid [untranslatable]

; sync_preserves_data (matches Coq: Theorem sync_preserves_data)
(assert (= true true)) ; sync_preserves_data [untranslatable]

; system_apps_sandboxed (matches Coq: Theorem system_apps_sandboxed)
(assert (= true true)) ; system_apps_sandboxed [untranslatable]

; minimal_permissions_enforced (matches Coq: Theorem minimal_permissions_enforced)
(assert (= true true)) ; minimal_permissions_enforced [untranslatable]

; system_app_response_correct (matches Coq: Theorem system_app_response_correct)
(assert (= true true)) ; system_app_response_correct [untranslatable]

; security_apps_encrypted (matches Coq: Theorem security_apps_encrypted)
(assert (= true true)) ; security_apps_encrypted [untranslatable]

; app_sandbox_enforced (matches Coq: Theorem app_sandbox_enforced)
(assert (= true true)) ; app_sandbox_enforced [untranslatable]

; no_cross_app_data_access (matches Coq: Theorem no_cross_app_data_access)
(assert (= true true)) ; no_cross_app_data_access [untranslatable]

; app_permission_checked_at_runtime (matches Coq: Theorem app_permission_checked_at_runtime)
(assert (= true true)) ; app_permission_checked_at_runtime [untranslatable]

; background_app_limited (matches Coq: Theorem background_app_limited)
(assert (= true true)) ; background_app_limited [untranslatable]

; foreground_app_priority (matches Coq: Theorem foreground_app_priority)
(assert (= true true)) ; foreground_app_priority [untranslatable]

; app_install_verified (matches Coq: Theorem app_install_verified)
(assert (= true true)) ; app_install_verified [untranslatable]

; app_update_atomic (matches Coq: Theorem app_update_atomic)
(assert (= true true)) ; app_update_atomic [untranslatable]

; app_uninstall_complete (matches Coq: Theorem app_uninstall_complete)
(assert (= true true)) ; app_uninstall_complete [untranslatable]

; app_data_encrypted_at_rest (matches Coq: Theorem app_data_encrypted_at_rest)
(assert (= true true)) ; app_data_encrypted_at_rest [untranslatable]

; app_network_permission_required (matches Coq: Theorem app_network_permission_required)
(assert (forall ((perm AppPermission)) (=> (= (perm_network perm) true) (=> (= (perm_granted_explicitly perm) true) (and (= (perm_network perm) true) (= (perm_granted_explicitly perm) true)))))) ; app_network_permission_required

; clipboard_access_notified (matches Coq: Theorem clipboard_access_notified)
(assert (forall ((perm AppPermission)) (=> (= (perm_clipboard perm) true) (=> (= (perm_granted_explicitly perm) true) (= (perm_clipboard perm) true))))) ; clipboard_access_notified

; camera_access_indicator (matches Coq: Theorem camera_access_indicator)
(assert (= true true)) ; camera_access_indicator [untranslatable]

; microphone_access_indicator (matches Coq: Theorem microphone_access_indicator)
(assert (= true true)) ; microphone_access_indicator [untranslatable]

; location_access_indicator (matches Coq: Theorem location_access_indicator)
(assert (= true true)) ; location_access_indicator [untranslatable]

; notification_permission_explicit (matches Coq: Theorem notification_permission_explicit)
(assert (forall ((perm AppPermission)) (=> (= (perm_notification perm) true) (=> (= (perm_granted_explicitly perm) true) (and (= (perm_notification perm) true) (= (perm_granted_explicitly perm) true)))))) ; notification_permission_explicit

; check_app_security_correct (matches Coq: Theorem check_app_security_correct)
(assert (forall ((app SystemApp)) (=> (= (check_app_security app) true) (and (= (is_verified app) true) (= (has_sandbox app) true) (= (permissions_minimal app) true) (= (data_encrypted app) true))))) ; check_app_security_correct

; Verify all assertions are satisfiable
(check-sat)
(exit)
